Welcome to sphere packing routines, relation testing division.
Welcome to Fake anchor 2
Enter depth bound:  Enter slop:  Depth bound = 32
slop = 0.001
Starting time:  	Wed May  6 14:59:26 1998

Starting case 1:
2.509999999999999786	2.569999999999999840
2.000000000000000000	2.250000000000000000
2.000000000000000000	2.250000000000000000
cellcount    =        244944905		maxdepth = 11
partialtries =           258010
impossible   =                0		domaincut    =                0
acutecut     =                0		verifycount  =        214326792
partialcount =                0		diff         =         30618113
Verification succeeded.

Done.
Ending time:    	Wed May  6 18:47:13 1998

Elapsed time: 13667 seconds
diff = -1234.63		17922.4 cells per second


